p cnf 20 28
-1 -2 0
-3 -4 0
1 2 0
3 4 0
-5 -6 0
-6 -7 0
-5 -7 0
-8 -9 0
-9 -10 0
-8 -10 0
5 6 7 0
8 9 10 0
-1 -4 -11 12 0
-1 -4 11 -12 0
-1 -4 13 -14 0
-1 -4 -13 14 0
-1 -4 15 -16 0
-1 -4 -15 16 0
-1 -4 17 -18 0
-1 -4 -17 18 0
11 -19 0
14 -19 0
16 -19 0
-18 -19 0
-11 -20 0
-14 -20 0
-16 -20 0
18 -20 0
